InboundTrucks  = 80;
OutboundTrucks = 40;
InboundDoors   = 7;
OutboundDoors  = 7;
ReleaseTime    = [97,49,82,60,52,111,25,25,86,50,7,54,56,108,57,4,115,67,41,25,30,63,80,78,96,109,82,66,24,111,51,41,60,16,54,59,95,91,106,90,84,4,66,31,96,32,57,60,111,110,63,34,5,119,114,22,111,80,98,12,4,48,33,1,22,27,117,25,15,45,16,112,28,88,101,83,25,55,30,39];
UnloadTime     = [32,22,29,28,31,39,25,32,13,22,34,35,43,32,32,36,20,25,45,32,32,17,22,30,10,15,42,34,30,16,28,20,26,41,29,18,45,21,45,39,18,38,13,10,21,32,38,39,18,11,41,16,22,20,10,13,15,41,34,10,33,22,43,15,23,36,39,12,44,26,37,41,25,24,40,21,14,24,39,40];
LoadTime       = [24,30,12,7,22,11,5,6,18,6,25,15,21,25,27,24,21,25,17,17,23,20,16,14,9,12,11,8,24,22,22,28,29,22,19,20,17,22,22,8];
TransferTime   = [| 0,0,0,0,0,0,0,0,0,0,0,0,0,47,0,40,0,0,0,0,33,0,0,22,0,38,12,0,0,0,19,0,0,12,0,0,0,14,0,0 | 0,0,0,0,0,0,22,0,0,0,0,0,0,0,0,0,0,0,0,0,0,0,0,0,0,0,0,0,0,49,0,0,0,0,0,0,42,0,0,15 | 0,0,0,0,21,0,0,0,0,14,0,14,0,0,0,0,0,26,0,0,0,0,22,0,0,0,0,0,50,0,0,0,19,0,0,0,0,0,0,0 | 0,0,31,0,0,0,0,0,0,0,0,0,0,0,25,0,27,32,0,15,0,0,0,0,43,0,32,0,14,26,0,0,0,0,0,0,29,45,0,0 | 0,48,42,0,0,35,0,0,47,0,0,0,26,0,32,0,0,0,0,26,0,0,0,0,0,0,45,0,0,0,11,48,0,0,0,0,26,0,0,0 | 17,0,0,0,0,0,0,0,0,36,0,0,0,0,0,0,10,0,0,23,0,0,0,35,20,0,48,49,0,0,0,0,0,13,0,0,0,0,47,0 | 0,0,0,0,0,16,0,0,0,0,0,42,0,0,17,0,36,25,0,0,0,0,0,0,23,20,0,0,0,0,35,36,0,0,0,0,32,0,0,0 | 0,48,50,0,0,0,0,0,0,0,0,0,0,0,0,0,0,37,0,0,0,34,41,0,46,0,0,0,0,0,0,0,0,0,0,0,0,0,0,0 | 17,16,0,0,0,27,37,16,24,0,38,0,0,0,0,32,22,0,0,0,26,13,33,0,0,0,0,0,25,0,0,0,0,0,18,33,0,0,48,41 | 0,0,0,0,0,16,0,11,0,26,0,0,0,0,0,0,47,0,0,0,0,0,0,0,0,0,0,0,0,0,0,31,0,0,0,0,0,0,27,0 | 29,0,0,0,0,0,0,17,0,0,0,0,0,0,0,0,0,0,0,0,0,0,0,33,0,0,0,0,0,0,0,0,0,0,31,0,11,0,0,0 | 0,0,0,0,0,0,30,0,0,0,0,17,0,0,0,34,0,0,45,19,0,0,0,0,0,0,50,0,0,0,0,0,0,0,0,0,0,0,0,18 | 0,39,30,0,0,32,0,30,0,0,0,0,0,0,41,0,0,0,26,0,0,0,0,31,0,0,0,0,0,0,0,0,0,0,0,0,0,0,0,36 | 0,0,0,0,33,0,22,0,0,0,0,10,19,41,0,0,0,0,0,0,0,0,42,10,16,0,0,0,23,0,30,40,34,0,0,0,41,0,0,0 | 35,0,0,0,0,17,12,0,0,0,0,0,0,0,0,0,0,0,24,27,0,0,0,0,28,27,0,0,0,0,0,0,0,0,0,0,39,0,0,0 | 0,0,0,0,0,34,0,44,0,0,18,0,0,0,26,0,0,43,0,0,0,0,35,0,0,0,10,0,0,0,0,0,28,0,0,0,0,27,10,0 | 36,13,10,0,0,12,40,0,0,0,0,27,16,0,0,15,0,0,0,0,0,30,0,39,47,0,0,0,0,29,0,0,0,0,0,0,0,0,0,0 | 43,14,22,15,0,0,0,0,0,0,0,0,0,0,0,41,0,0,0,0,12,0,0,24,0,0,0,0,36,0,0,0,15,0,0,0,0,27,0,0 | 0,42,0,0,0,0,42,0,0,0,0,26,0,0,39,0,39,0,10,0,0,0,0,19,0,0,21,0,0,39,34,0,0,0,50,0,0,40,0,0 | 0,0,0,0,0,34,0,0,26,0,0,31,0,0,24,0,0,0,26,0,0,0,39,20,0,0,0,0,0,0,0,0,48,44,0,0,0,0,0,0 | 0,0,31,0,0,0,0,10,0,0,0,0,0,0,0,0,30,0,0,12,0,0,0,32,0,0,0,0,31,0,0,0,27,0,0,0,0,0,14,0 | 0,0,0,0,11,0,28,0,10,26,0,37,0,0,0,0,0,0,0,0,0,32,0,0,0,0,0,31,0,0,0,0,0,0,18,0,0,0,0,20 | 0,0,45,0,0,0,0,0,0,44,0,0,0,0,26,0,0,0,0,0,30,33,25,0,0,0,0,40,19,0,40,44,0,30,0,0,0,50,0,0 | 0,0,0,0,0,0,0,0,0,0,0,0,27,0,0,31,0,0,0,0,0,0,0,0,0,0,0,0,0,0,29,24,0,0,0,0,0,24,0,11 | 0,0,0,38,0,0,0,0,0,11,0,0,0,0,0,0,0,0,0,0,20,0,30,0,0,0,44,0,0,0,36,29,0,0,34,0,0,0,34,0 | 0,0,50,0,0,0,0,0,0,16,0,0,0,0,0,0,0,0,0,50,0,26,0,0,0,0,0,40,0,0,36,39,0,0,0,0,27,0,0,0 | 40,31,19,41,0,41,0,31,0,0,31,0,0,0,0,0,0,27,0,45,0,38,0,0,0,0,28,0,0,0,0,0,0,16,14,0,0,0,0,0 | 0,0,22,0,0,0,0,39,34,0,0,0,0,0,0,0,0,0,47,0,0,0,48,31,13,0,0,0,21,0,36,13,50,0,0,0,0,26,0,0 | 0,0,0,0,0,0,0,0,0,0,0,31,0,0,36,0,0,0,35,0,0,44,0,0,16,0,0,0,0,0,0,0,0,0,0,0,0,32,0,0 | 0,24,0,0,0,0,0,0,0,27,13,0,40,20,46,0,47,0,10,0,13,0,19,0,0,0,0,0,0,35,41,0,0,0,0,23,0,22,24,0 | 0,0,0,0,46,0,0,36,0,41,45,13,0,0,13,0,0,0,0,25,0,0,0,0,0,10,0,20,0,0,0,0,0,0,0,0,0,0,0,18 | 0,0,0,0,0,0,0,30,0,0,0,0,19,0,0,0,43,0,0,0,0,0,0,27,0,22,0,0,32,35,38,0,0,0,0,39,19,48,10,34 | 0,0,0,0,38,0,0,0,0,0,0,20,0,0,13,15,0,0,0,46,0,0,0,0,0,0,46,0,0,0,0,0,17,0,0,0,0,0,0,0 | 0,0,0,0,39,0,0,0,0,0,14,0,0,0,0,32,0,0,0,0,0,0,36,0,0,0,0,0,0,0,0,0,0,25,18,0,0,0,0,0 | 0,0,0,0,0,25,0,0,13,0,0,0,0,0,0,0,0,0,0,43,0,0,38,0,0,0,0,0,47,0,0,0,0,42,0,13,0,0,0,0 | 0,0,45,0,0,0,0,0,0,0,0,0,0,48,0,0,30,0,0,0,0,0,0,0,0,0,48,0,0,40,0,37,0,0,0,0,29,0,0,0 | 0,0,45,0,0,0,0,34,35,0,0,0,0,0,0,23,0,0,0,0,0,0,0,0,0,0,0,0,0,0,0,28,0,0,0,0,0,25,33,0 | 0,0,0,0,0,43,0,0,48,0,0,0,0,0,39,0,0,24,35,0,38,0,0,42,26,0,0,0,0,42,0,0,13,0,0,0,0,0,0,0 | 0,0,0,21,20,24,0,0,0,0,0,0,0,24,0,0,0,42,28,0,32,0,0,0,0,0,0,0,0,0,0,0,17,0,0,42,11,0,0,0 | 38,0,33,0,0,23,19,0,0,0,0,0,0,0,0,31,0,0,48,0,0,0,0,0,0,0,25,0,18,0,17,40,36,37,0,0,0,46,0,0 | 0,25,0,0,0,0,22,0,0,0,0,0,0,0,0,0,0,0,0,0,0,34,0,21,0,0,0,0,0,0,0,0,0,22,0,0,0,50,0,19 | 0,0,0,0,0,0,0,37,0,0,41,0,23,0,0,24,0,0,34,0,0,0,0,0,23,0,0,0,33,0,0,0,0,0,0,0,39,0,35,33 | 31,0,0,0,0,0,0,0,46,0,0,10,21,16,0,0,0,0,0,24,0,0,0,0,48,0,0,0,0,0,0,44,0,0,0,0,0,27,0,0 | 0,0,0,0,10,0,0,0,0,0,0,43,47,0,0,43,0,44,0,0,0,0,0,0,18,0,0,0,34,0,0,0,0,0,0,0,45,0,0,0 | 0,0,0,21,0,0,15,0,0,0,0,0,0,49,35,0,0,0,24,21,0,0,0,0,47,0,0,0,0,0,0,0,40,0,0,0,0,35,0,32 | 0,0,0,20,0,48,0,22,0,0,0,25,0,28,0,0,12,0,0,0,0,0,0,36,0,0,0,0,0,0,0,15,33,0,0,31,10,32,0,0 | 0,50,0,0,50,47,0,0,0,0,0,0,0,0,0,0,0,0,0,48,0,0,29,0,0,0,0,0,43,0,0,0,0,0,40,45,27,0,0,0 | 0,0,0,0,0,0,0,0,19,45,23,0,0,0,24,0,0,40,0,0,0,0,0,0,0,43,0,0,31,0,0,0,0,42,49,0,0,0,0,19 | 0,0,0,0,0,50,0,0,0,33,0,45,12,0,20,0,0,0,0,0,0,0,0,0,0,33,0,0,0,0,0,0,0,15,0,0,0,0,0,0 | 0,0,0,0,0,16,0,44,0,0,0,33,0,0,0,0,0,18,0,10,0,49,34,0,0,28,23,24,0,0,48,0,0,19,0,0,0,50,0,0 | 0,0,0,43,0,0,0,0,0,0,0,23,0,0,0,0,0,0,0,0,0,0,0,0,0,0,0,41,0,0,0,30,20,0,0,0,0,24,16,0 | 0,0,31,0,0,0,0,0,17,21,0,38,0,0,0,0,0,0,0,49,0,0,0,0,0,39,36,50,14,0,41,0,16,0,0,12,48,45,0,0 | 0,0,0,0,13,16,23,0,0,0,22,22,25,20,0,0,0,0,0,0,42,0,0,0,0,0,0,28,0,0,0,0,0,0,0,0,0,17,0,0 | 0,0,0,0,50,0,0,0,0,17,0,0,0,0,0,0,32,0,0,0,0,0,46,0,20,0,0,49,0,0,0,0,0,0,0,0,0,0,42,29 | 0,0,41,47,0,0,0,0,47,0,0,0,0,0,0,0,0,0,0,0,0,0,0,0,40,40,0,10,0,21,0,0,31,0,0,31,32,36,0,0 | 0,0,29,0,0,0,0,45,11,0,0,0,0,0,0,17,0,0,0,0,11,0,0,11,0,0,16,35,17,0,0,41,0,0,0,0,21,0,0,0 | 0,44,0,0,0,0,26,0,0,0,0,0,0,0,0,0,0,0,0,0,34,0,0,14,0,0,0,0,0,0,0,44,0,0,0,18,26,0,0,0 | 0,0,0,0,16,0,0,44,39,0,0,0,18,34,0,0,0,0,0,0,19,0,0,0,0,0,0,0,0,0,0,0,0,0,0,23,0,47,0,0 | 16,0,0,0,0,0,0,0,0,0,0,0,0,0,0,22,0,0,0,0,24,0,0,0,0,0,28,28,46,0,0,0,12,11,0,0,0,0,0,0 | 0,0,0,0,0,0,0,0,0,42,0,0,0,0,35,0,0,0,0,0,48,0,50,23,49,0,43,0,0,0,0,0,0,0,0,0,0,0,0,0 | 0,47,0,0,0,40,20,30,27,0,0,0,0,0,0,0,0,31,0,40,0,0,49,0,0,0,0,15,34,0,0,0,0,0,25,0,0,0,0,0 | 0,0,0,48,0,0,0,0,37,48,0,0,0,0,0,0,25,0,0,0,0,0,46,0,0,0,0,0,12,0,0,0,0,14,0,49,0,0,18,30 | 45,0,0,31,0,0,0,0,12,19,16,0,0,0,50,0,27,48,32,39,0,12,0,0,0,0,30,0,0,14,33,0,36,0,19,0,0,0,35,0 | 10,0,0,0,0,0,0,0,27,0,19,0,26,0,46,45,10,0,0,0,0,0,0,47,0,15,0,0,0,32,0,0,0,13,38,0,12,0,0,46 | 0,0,0,43,0,0,0,0,0,0,0,0,0,20,0,0,0,18,0,23,0,0,0,0,0,19,37,48,34,45,18,0,0,0,0,0,0,0,35,0 | 0,0,0,43,0,0,0,0,0,0,45,43,30,18,0,0,22,0,0,25,26,0,0,22,0,0,0,0,0,0,0,0,46,18,0,0,0,0,0,0 | 0,0,0,0,0,0,50,0,0,0,0,0,27,0,0,0,0,0,0,0,0,0,0,0,0,0,0,42,0,0,0,0,0,23,0,0,0,39,45,0 | 40,33,18,0,0,0,0,13,0,44,0,0,18,20,0,25,0,0,41,0,0,0,19,35,14,0,0,0,42,0,0,0,0,40,0,0,0,48,0,0 | 48,0,17,0,0,0,0,0,25,0,15,34,0,0,0,25,24,0,0,0,37,21,40,0,0,0,0,49,0,0,26,39,0,0,0,0,0,0,0,0 | 11,0,19,13,0,0,0,35,38,0,0,0,0,0,30,0,0,29,0,0,0,0,0,39,30,0,16,34,28,0,45,13,0,0,0,15,0,10,0,0 | 40,44,0,0,0,18,0,33,0,0,0,0,0,25,0,0,19,0,0,0,30,0,0,0,34,0,0,27,0,0,0,22,12,15,0,33,18,0,0,0 | 0,24,0,0,0,0,0,29,0,0,0,30,22,0,0,0,20,0,0,0,0,0,0,16,0,0,22,40,0,0,0,0,44,0,0,0,0,0,26,10 | 0,0,19,32,0,0,0,0,43,0,0,0,11,0,0,0,0,0,0,0,0,0,0,0,0,0,0,0,0,0,0,0,36,0,0,0,48,0,0,0 | 27,0,0,40,0,22,19,11,0,0,0,0,0,0,0,0,49,0,0,0,0,0,0,0,31,0,0,0,0,44,0,48,0,0,0,0,40,0,0,0 | 16,0,0,0,0,0,0,0,0,0,0,0,35,0,0,20,45,21,0,19,0,0,0,45,10,0,0,0,11,12,0,25,0,0,0,0,0,0,10,12 | 35,0,39,32,0,0,30,0,0,0,44,0,40,45,0,0,0,32,0,0,0,0,0,0,0,0,0,47,0,0,0,23,26,0,0,0,45,0,0,0 | 0,0,0,0,0,44,20,11,0,37,0,0,0,0,47,0,15,20,0,0,0,41,16,0,13,0,0,0,0,0,22,37,0,0,0,27,0,0,20,0 | 0,48,0,0,0,0,44,0,0,0,17,41,0,0,0,0,0,0,0,0,0,0,0,0,35,0,0,30,0,48,0,0,0,0,17,34,45,16,0,0 | 0,30,15,0,0,0,50,0,0,0,0,0,0,0,0,47,0,10,0,0,0,0,0,0,45,0,0,43,20,0,0,0,23,0,0,0,41,0,45,12 | 0,21,0,0,0,38,0,13,0,0,0,0,27,0,0,44,0,0,0,0,0,42,0,34,41,0,46,37,26,0,0,0,0,43,0,0,0,50,12,0 |];
